
List of user-set options:

                                    Name   Value                used
                           compl_inf_tol = 1                     yes
                         constr_viol_tol = 1                     yes
                            dual_inf_tol = 1000                  yes
                           linear_solver = ma97                  yes
                              ma86_small = 1e-30                  no
                                  ma86_u = 0.0001                 no
                              ma97_order = best                  yes
                              ma97_small = 1e-30                 yes
                            ma97_switch1 = at_start              yes
                            ma97_switch2 = od_hd_reuse           yes
                                  ma97_u = 1e-06                 yes
                               ma97_umax = 0.5                   yes
                                max_iter = 1000                  yes
                    max_refinement_steps = 20                    yes
                    min_refinement_steps = 5                     yes
                                 mu_init = 1e-06                 yes
           mu_superlinear_decrease_power = 1.25                  yes
                   nlp_scaling_min_value = 1e-08                 yes
                        option_file_name = Preset_Case_667_pf.opt  yes
                             output_file = ./tmp/Preset_Case_667_pf.output  yes
                      print_user_options = yes                   yes
        required_infeasibility_reduction = 1                      no
                                     tol = 1e-08                 yes
                   warm_start_bound_frac = 1e-20                 yes
                   warm_start_bound_push = 1e-20                 yes
                   warm_start_init_point = yes                   yes
              warm_start_mult_bound_push = 1e-20                 yes
                warm_start_mult_init_max = 1e+40                 yes
             warm_start_slack_bound_frac = 1e-20                 yes
             warm_start_slack_bound_push = 1e-20                 yes

******************************************************************************
This program contains Ipopt, a library for large-scale nonlinear optimization.
 Ipopt is released as open source code under the Eclipse Public License (EPL).
         For more information visit http://projects.coin-or.org/Ipopt
******************************************************************************

This is Ipopt version 3.12.10, running with linear solver ma97.

Number of nonzeros in equality constraint Jacobian...:   123443
Number of nonzeros in inequality constraint Jacobian.:      213
Number of nonzeros in Lagrangian Hessian.............:    49069

Total number of variables............................:    31591
                     variables with only lower bounds:    12912
                variables with lower and upper bounds:    15130
                     variables with only upper bounds:        0
Total number of equality constraints.................:    31483
Total number of inequality constraints...............:       25
        inequality constraints with only lower bounds:        4
   inequality constraints with lower and upper bounds:        0
        inequality constraints with only upper bounds:       21

iter    objective    inf_pr   inf_du lg(mu)  ||d||  lg(rg) alpha_du alpha_pr  ls
   0 -5.3464189e+00 4.06e-03 1.02e+00  -6.0 0.00e+00    -  0.00e+00 0.00e+00   0
   1 -5.3543985e+00 8.77e+00 3.36e+01  -6.0 3.93e+05    -  8.19e-05 1.16e-03h  1
   2 -5.3543586e+00 8.77e+00 3.36e+01  -6.0 2.62e+03    -  1.06e-04 3.32e-05h  1
   3 -5.3515430e+00 8.76e+00 3.37e+01  -6.0 1.77e+04    -  9.03e-05 1.07e-03h  3
   4 -5.3482811e+00 8.73e+00 1.23e+02  -6.0 4.09e+03    -  2.36e-01 2.79e-03h  3
   5 -5.3469533e+00 8.73e+00 1.32e+02  -6.0 1.11e+03    -  3.29e-03 9.71e-04h  6
   6 -5.3460522e+00 8.72e+00 1.34e+02  -6.0 3.66e+03    -  5.87e-03 7.78e-04h 10
   7 -5.3458272e+00 8.72e+00 1.39e+02  -6.0 3.67e+03    -  1.07e-02 1.95e-04h 12
   8 -5.3457709e+00 8.72e+00 1.46e+02  -6.0 3.66e+03    -  1.72e-02 4.88e-05h 14
   9 -5.3394162e+00 8.65e+00 2.96e+02  -6.0 3.65e+03    -  7.43e-03 7.03e-03H  1
iter    objective    inf_pr   inf_du lg(mu)  ||d||  lg(rg) alpha_du alpha_pr  ls
  10 -5.3385406e+00 8.65e+00 2.98e+02  -6.0 3.70e+03    -  2.12e-07 7.81e-04h  1
  11 -5.3383985e+00 8.65e+00 2.99e+02  -6.0 3.00e+03    -  1.05e-02 2.41e-04H  1
  12 -5.3383982e+00 8.65e+00 2.99e+02  -6.0 3.37e+03    -  1.73e-09 2.85e-07h  2
  13 -5.2495219e+00 8.00e+00 2.00e+04  -6.0 2.57e+03    -  6.52e-04 7.49e-02h  4
  14 -5.2494933e+00 8.00e+00 2.00e+04  -6.0 4.71e+02  -4.0 1.64e-04 3.04e-05h  1
  15 -5.2494921e+00 8.00e+00 2.00e+04  -6.0 4.84e+02   0.0 3.42e-06 1.38e-06f  2
  16r-5.2494921e+00 8.00e+00 9.99e+02   0.9 0.00e+00  -0.4 0.00e+00 8.81e-10R  9
  17r-5.1607423e+00 8.00e+00 1.90e+05   0.9 7.51e+05    -  2.03e-09 1.37e-08f  1
  18r-5.1695574e+00 8.00e+00 1.90e+05   0.9 4.56e+04    -  3.96e-07 8.84e-08f  1
  19r-5.2014542e+00 7.99e+00 1.90e+05   0.9 4.32e+04    -  3.44e-07 9.51e-07f  1
iter    objective    inf_pr   inf_du lg(mu)  ||d||  lg(rg) alpha_du alpha_pr  ls
  20r-5.2025681e+00 7.99e+00 1.90e+05   0.9 4.03e+04    -  6.53e-07 2.99e-07f  1
  21r-5.2064683e+00 7.98e+00 1.90e+05   0.9 3.85e+04    -  4.22e-07 1.15e-06f  1
  22r-5.2007780e+00 7.95e+00 1.90e+05   0.9 3.59e+04    -  1.46e-05 3.55e-06f  1
  23r-5.1323802e+00 7.74e+00 1.90e+05   0.9 2.10e+04    -  2.22e-05 2.73e-05f  1
  24 -5.1487773e+00 7.74e+00 2.92e+02  -6.0 9.01e+06    -  6.27e-04 4.65e-05h  4
  25 -5.1530486e+00 7.74e+00 2.92e+02  -6.0 6.01e+06    -  7.29e-04 1.76e-05h  6
  26 -5.3033729e+00 7.74e+00 2.92e+02  -6.0 4.93e+06    -  1.33e-03 7.21e-04f  1
  27 -5.3909613e+00 1.00e+01 1.55e+03  -6.0 3.51e+05    -  3.21e-04 1.12e-03h  1
  28 -5.4054645e+00 1.02e+01 3.73e+03  -6.0 3.28e+05    -  2.61e-03 2.80e-04h  1
  29 -5.4098199e+00 1.03e+01 5.52e+03  -6.0 4.24e+05    -  1.43e-03 2.49e-04h  1
iter    objective    inf_pr   inf_du lg(mu)  ||d||  lg(rg) alpha_du alpha_pr  ls
  30 -5.4305650e+00 1.43e+01 3.08e+03  -6.0 2.63e+05    -  3.57e-04 1.66e-03h  1
  31 -5.4336004e+00 1.45e+01 3.32e+03  -6.0 1.91e+05    -  6.23e-04 5.09e-04h  1
  32 -5.4495694e+00 2.04e+01 7.77e+02  -6.0 1.81e+05    -  1.06e-03 2.97e-03h  1
  33 -5.4580821e+00 2.18e+01 4.23e+03  -6.0 1.03e+05    -  1.08e-03 2.58e-03h  1
  34 -5.4635347e+00 2.20e+01 1.45e+03  -6.0 7.74e+04    -  4.19e-03 1.60e-03h  1
  35 -5.4695517e+00 2.22e+01 3.78e+03  -6.0 8.90e+04    -  2.66e-03 1.50e-03h  1
  36 -5.4777114e+00 2.23e+01 7.49e+03  -6.0 1.22e+05    -  3.82e-03 1.60e-03h  1
  37 -5.4923302e+00 2.24e+01 7.96e+03  -6.0 2.69e+05    -  4.36e-03 1.56e-03h  1
  38 -5.5025706e+00 2.24e+01 7.88e+03  -6.0 8.75e+04    -  4.92e-03 3.28e-03h  1
  39 -5.5063423e+00 2.24e+01 7.59e+03  -6.0 1.73e+04    -  2.09e-02 3.52e-03h  1
iter    objective    inf_pr   inf_du lg(mu)  ||d||  lg(rg) alpha_du alpha_pr  ls
  40 -5.5055352e+00 2.24e+01 7.26e+03  -6.0 1.64e+04    -  2.17e-02 2.87e-03h  4
  41 -5.5046134e+00 2.24e+01 7.12e+03  -6.0 1.30e+04    -  9.72e-03 2.46e-03h  4
  42 -5.5027552e+00 2.23e+01 6.99e+03  -6.0 1.12e+04    -  9.92e-03 4.26e-03h  3
  43 -5.4995149e+00 2.22e+01 6.44e+03  -6.0 1.13e+04    -  3.28e-02 6.33e-03h  2
  44 -5.4957030e+00 2.21e+01 5.95e+03  -6.0 1.12e+04    -  1.61e-02 6.38e-03h  1
  45 -5.4928700e+00 2.20e+01 1.45e+04  -6.0 1.73e+04    -  1.03e-02 4.21e-03h  3
  46 -5.4725782e+00 2.15e+01 1.39e+04  -6.0 1.17e+04    -  3.17e-02 3.14e-02h  1
  47 -5.4715634e+00 2.14e+01 1.31e+04  -6.0 1.78e+02  -0.9 1.73e-05 4.66e-04h  1
  48 -5.4699394e+00 2.14e+01 1.25e+04  -6.0 1.84e+02  -1.4 8.20e-05 5.21e-04h  1
  49 -5.4646656e+00 2.14e+01 1.08e+04  -6.0 1.74e+02  -1.9 5.12e-06 1.43e-03h  1
iter    objective    inf_pr   inf_du lg(mu)  ||d||  lg(rg) alpha_du alpha_pr  ls
  50 -5.4613848e+00 2.14e+01 1.11e+04  -6.0 1.79e+02  -2.3 1.32e-03 9.15e-04h  4
  51 -5.4597934e+00 2.14e+01 1.19e+04  -6.0 2.26e+02  -2.8 1.86e-03 5.45e-04h  6
  52 -5.4588940e+00 2.14e+01 1.33e+04  -6.0 2.46e+02  -3.3 3.40e-03 3.73e-04h  7
  53 -5.4585537e+00 2.14e+01 1.50e+04  -6.0 2.84e+02  -3.8 5.24e-03 1.71e-04h  9
  54 -5.4584835e+00 2.14e+01 1.68e+04  -6.0 3.68e+02  -4.3 6.61e-03 4.94e-05h  8
  55 -5.2573964e+00 1.94e+01 4.06e+03  -6.0 2.71e+02  -3.8 7.05e-03 9.35e-02h  1
  56 -5.2346689e+00 1.92e+01 4.51e+03  -6.0 1.75e+02  -2.5 1.79e-03 6.83e-03h  1
  57 -5.1804252e+00 1.89e+01 4.58e+03  -6.0 2.19e+02  -3.0 1.67e-02 1.92e-02h  1
  58 -5.1478030e+00 1.87e+01 4.83e+03  -6.0 1.78e+02  -2.6 2.37e-03 6.37e-03h  1
  59 -5.1177000e+00 1.87e+01 5.01e+03  -6.0 1.71e+02  -2.1 6.88e-06 3.88e-03h  1
iter    objective    inf_pr   inf_du lg(mu)  ||d||  lg(rg) alpha_du alpha_pr  ls
  60 -4.9257865e+00 1.82e+01 5.38e+03  -6.0 1.74e+02  -2.6 7.95e-03 2.47e-02h  1
  61 -4.8767628e+00 1.81e+01 4.87e+03  -6.0 1.73e+02  -2.2 1.76e-02 6.29e-03h  1
  62 -4.6585106e+00 1.76e+01 5.05e+03  -6.0 1.71e+02  -2.7 1.35e-02 2.64e-02h  1
  63 -4.6517026e+00 1.76e+01 5.13e+03  -6.0 1.11e+03  -3.1 1.98e-03 3.83e-04h  1
  64 -4.4387721e+00 1.71e+01 5.12e+03  -6.0 1.70e+02  -2.7 2.30e-02 2.78e-02h  1
  65 -4.3884172e+00 1.70e+01 4.56e+03  -6.0 1.62e+02  -3.2 8.34e-02 6.84e-03h  1
  66 -3.7560458e+00 1.55e+01 5.67e+03  -6.0 1.67e+02  -2.8 1.73e-02 9.01e-02h  1
  67 -3.7391461e+00 1.54e+01 5.20e+03  -6.0 1.47e+02  -3.2 6.70e-02 3.80e-03h  1
  68 -3.6841468e+00 1.52e+01 5.06e+03  -6.0 1.43e+02  -2.8 1.65e-02 1.25e-02h  1
  69 -3.6464232e+00 1.51e+01 7.50e+03  -6.0 1.53e+02  -3.3 1.36e-01 9.17e-03h  1
iter    objective    inf_pr   inf_du lg(mu)  ||d||  lg(rg) alpha_du alpha_pr  ls
  70 -3.5798643e+00 1.49e+01 9.68e+03  -6.0 1.44e+02  -2.9 4.40e-02 1.48e-02h  1
  71 -3.4684212e+00 1.44e+01 1.16e+04  -6.0 1.63e+02  -3.3 8.13e-02 2.82e-02h  1
  72 -3.2367786e+00 1.36e+01 1.20e+04  -6.0 1.47e+02  -2.9 7.02e-02 5.62e-02h  1
  73 -2.9976942e+00 1.14e+01 3.95e+03  -6.0 2.07e+02  -3.4 6.72e-02 1.66e-01h  1
  74 -2.9976970e+00 1.14e+01 1.92e+04  -6.0 3.55e+02  -3.9 7.00e-03 3.49e-07h  2
  75 -2.9893633e+00 1.04e+01 7.37e+04  -6.0 2.03e+02  -3.4 9.75e-04 8.56e-02h  1
  76 -2.9525772e+00 1.02e+01 6.85e+04  -6.0 1.53e+02  -3.0 3.33e-02 1.78e-02h  1
  77 -3.0420586e+00 7.15e+00 4.73e+04  -6.0 1.99e+02  -3.5 1.14e-01 2.99e-01h  1
  78 -3.0729626e+00 6.99e+00 4.61e+04  -6.0 2.51e+02  -4.0 1.30e-02 2.27e-02h  1
  79 -3.0738858e+00 6.96e+00 5.63e+04  -6.0 1.51e+02  -3.5 4.31e-01 4.66e-03h  1
iter    objective    inf_pr   inf_du lg(mu)  ||d||  lg(rg) alpha_du alpha_pr  ls
  80 -3.2509058e+00 6.41e+00 5.17e+04  -6.0 2.61e+02  -4.0 1.05e-03 7.92e-02h  1
  81 -3.3887196e+00 6.12e+00 4.91e+04  -6.0 3.79e+02  -4.5 2.65e-02 4.43e-02h  1
  82 -3.4024732e+00 5.88e+00 4.68e+04  -6.0 1.83e+02  -4.1 4.72e-03 3.87e-02h  1
  83 -3.3764332e+00 5.38e+00 4.51e+04  -6.0 1.11e+02  -3.6 1.54e-01 8.60e-02h  1
  84 -3.4329115e+00 4.77e+00 3.96e+04  -6.0 1.69e+02  -4.1 5.54e-02 1.14e-01h  1
  85 -3.4299705e+00 4.57e+00 3.71e+04  -6.0 8.77e+01  -3.7 2.76e-05 4.05e-02h  1
  86 -3.4215473e+00 4.38e+00 4.50e+04  -6.0 6.71e+01  -3.3 3.17e-01 4.25e-02h  1
  87 -3.1749157e+00 3.11e+00 4.78e+05  -6.0 1.01e+02  -3.7 2.86e-03 2.90e-01h  1
  88 -3.1865737e+00 2.75e+00 4.24e+05  -6.0 2.57e+01  -2.4 5.08e-03 1.14e-01h  1
  89 -3.2122767e+00 2.46e+00 3.79e+05  -6.0 2.06e+01  -2.9 8.95e-02 1.08e-01h  1
iter    objective    inf_pr   inf_du lg(mu)  ||d||  lg(rg) alpha_du alpha_pr  ls
  90 -3.3474073e+00 2.05e+00 3.21e+05  -6.0 4.71e+01  -3.4 6.53e-03 1.64e-01h  1
  91 -3.4460203e+00 1.81e+00 2.83e+05  -6.0 1.67e+01  -2.9 3.64e-01 1.18e-01h  1
  92 -4.4600710e+00 1.07e+00 1.04e+05  -6.0 3.32e+01  -3.4 6.65e-02 6.83e-01h  1
  93 -4.5986299e+00 1.05e+00 1.02e+05  -6.0 1.15e+02  -3.9 4.69e-02 2.65e-02h  1
  94 -4.7021732e+00 1.04e+00 9.70e+04  -6.0 4.06e+02  -4.4 2.32e-02 4.97e-02h  1
  95 -4.7276071e+00 1.02e+00 9.51e+04  -6.0 6.49e+01  -3.9 2.67e-01 1.97e-02h  1
  96 -5.1520035e+00 2.40e+00 8.16e+04  -6.0 1.48e+02  -4.4 2.16e-01 1.90e-01h  1
  97 -5.2399703e+00 2.00e+00 6.69e+04  -6.0 6.82e+01  -4.0 3.82e-02 1.81e-01h  1
  98 -5.2529544e+00 1.92e+00 6.40e+04  -6.0 5.95e+01  -3.6 2.07e-01 4.33e-02h  1
  99 -5.2603699e+00 1.87e+00 6.26e+04  -6.0 6.92e+01  -4.1 1.17e-02 2.22e-02h  1
iter    objective    inf_pr   inf_du lg(mu)  ||d||  lg(rg) alpha_du alpha_pr  ls
 100 -5.2635805e+00 1.86e+00 6.51e+04  -6.0 6.05e+01  -3.6 8.16e-02 6.18e-03h  1
 101 -5.2884302e+00 1.77e+00 6.06e+04  -6.0 7.45e+01  -4.1 2.73e-02 4.72e-02h  1
 102 -5.2998705e+00 1.73e+00 6.02e+04  -6.0 5.82e+01  -4.6 6.87e-02 2.84e-02h  1
 103 -5.3258006e+00 1.64e+00 6.20e+04  -6.0 6.04e+01  -5.1 3.16e-01 5.49e-02h  1
 104 -5.3467693e+00 1.07e+00 4.30e+04  -6.0 5.40e+01  -4.6 4.62e-01 3.58e-01h  1
 105 -5.3782374e+00 8.52e-01 3.08e+04  -6.0 6.84e+01  -5.1 2.91e-01 2.79e-01h  1
 106 -5.3802968e+00 8.12e-01 3.02e+04  -6.0 5.99e+01  -4.7 1.26e-01 4.83e-02h  1
 107 -5.4202116e+00 9.99e-01 1.62e+04  -6.0 4.79e+01  -5.2 1.87e-02 3.50e-01h  1
 108 -5.4389148e+00 5.72e-01 3.18e+03  -6.0 1.71e+01  -4.7 6.26e-01 8.52e-01h  1
 109r-5.4389148e+00 5.72e-01 9.99e+02  -0.7 0.00e+00  -5.2 0.00e+00 2.57e-07R  6
iter    objective    inf_pr   inf_du lg(mu)  ||d||  lg(rg) alpha_du alpha_pr  ls
 110r-5.4380897e+00 5.69e-01 9.99e+02  -0.7 9.48e+03    -  2.64e-08 5.82e-06f  1
 111 -5.5530479e+00 5.89e-01 2.80e+02  -6.0 6.86e+06    -  4.34e-05 2.54e-04f  1
 112 -5.7122709e+00 5.98e+00 2.85e+02  -6.0 4.96e+06    -  1.09e-03 8.38e-04f  1
 113 -5.7310085e+00 5.99e+00 6.44e+02  -6.0 5.37e+05    -  4.58e-03 3.10e-04h  1
 114 -5.9155888e+00 4.53e+01 9.51e+02  -6.0 5.60e+05    -  5.02e-03 3.43e-03f  1
 115 -5.9144250e+00 4.49e+01 1.56e+04  -6.0 3.61e+02  -5.7 4.87e-06 8.09e-03h  1
 116 -5.9087020e+00 4.26e+01 2.75e+04  -6.0 1.08e+02  -6.2 5.97e-03 5.09e-02h  1
 117 -5.9046387e+00 4.04e+01 2.62e+04  -6.0 1.67e+02  -6.6 1.50e-01 5.27e-02h  1
 118 -5.9034794e+00 3.86e+01 2.50e+04  -6.0 3.64e+02  -7.1 8.97e-02 4.44e-02h  1
 119 -5.9074601e+00 3.94e+01 2.47e+04  -6.0 2.73e+04    -  2.28e-03 1.08e-02h  2
iter    objective    inf_pr   inf_du lg(mu)  ||d||  lg(rg) alpha_du alpha_pr  ls
 120 -5.9106494e+00 3.99e+01 2.44e+04  -6.0 2.16e+04    -  1.72e-03 1.34e-02h  2
 121 -5.9128062e+00 4.04e+01 2.41e+04  -6.0 2.45e+04    -  5.08e-02 9.81e-03h  2
 122 -5.9147470e+00 4.06e+01 2.37e+04  -6.0 1.83e+04    -  5.50e-02 1.80e-02h  2
 123 -5.9150414e+00 4.04e+01 2.34e+04  -6.0 1.67e+04    -  6.09e-02 9.13e-03h  3
 124 -5.9149246e+00 4.03e+01 2.34e+04  -6.0 2.73e+02  -7.6 3.93e-01 1.27e-03h  3
 125 -5.9150407e+00 4.01e+01 2.32e+04  -6.0 1.34e+04    -  5.42e-02 9.36e-03h  2
 126 -5.9150142e+00 3.99e+01 2.31e+04  -6.0 1.33e+04    -  5.74e-02 5.52e-03h  2
 127 -5.9149535e+00 3.97e+01 2.30e+04  -6.0 1.37e+04    -  1.02e-01 3.71e-03h  2
 128 -5.9146949e+00 3.94e+01 2.28e+04  -6.0 1.16e+04    -  5.83e-02 8.79e-03h  3
 129 -5.9126283e+00 4.13e+01 2.06e+04  -6.0 1.03e+04    -  1.99e-02 9.74e-02w  1
iter    objective    inf_pr   inf_du lg(mu)  ||d||  lg(rg) alpha_du alpha_pr  ls
 130 -5.9089635e+00 3.93e+01 1.96e+04  -6.0 1.23e+03  -8.1 8.82e-02 4.84e-02w  1
 131 -5.9107188e+00 3.85e+01 1.92e+04  -6.0 4.50e+03  -8.6 3.11e-02 2.00e-02w  1
 132 -5.9144365e+00 3.90e+01 2.25e+04  -6.0 1.21e+03  -9.0 1.99e-02 1.22e-02h  3
 133 -5.9139664e+00 3.86e+01 2.23e+04  -6.0 7.63e+03    -  6.89e-02 1.12e-02h  4
 134 -5.9133431e+00 3.81e+01 2.19e+04  -6.0 6.66e+03    -  1.28e-01 1.40e-02h  3
 135 -5.9112496e+00 3.69e+01 2.11e+04  -6.0 4.04e+03    -  1.20e-01 3.67e-02h  1
 136 -5.9072751e+00 3.50e+01 1.98e+04  -6.0 3.14e+03    -  5.25e-02 6.09e-02h  1
 137 -5.8998168e+00 3.24e+01 1.75e+04  -6.0 2.53e+03    -  1.64e-01 1.19e-01h  1
 138 -5.8846356e+00 2.42e+01 1.31e+04  -6.0 2.56e+02  -6.8 5.32e-03 2.52e-01h  1
 139 -5.8829166e+00 2.33e+01 1.26e+04  -6.0 8.30e+01  -7.3 2.43e-01 3.67e-02h  1
iter    objective    inf_pr   inf_du lg(mu)  ||d||  lg(rg) alpha_du alpha_pr  ls
 140 -5.8644434e+00 1.83e+01 9.86e+03  -6.0 7.14e+00  -3.2 8.17e-03 2.17e-01h  1
 141 -5.8432705e+00 1.03e+01 9.15e+03  -6.0 3.94e+00  -2.8 1.07e-01 4.36e-01h  1
 142 -5.8415624e+00 9.82e+00 8.73e+03  -6.0 1.58e+00  -1.5 5.69e-02 4.67e-02h  1
 143 -5.8408915e+00 9.63e+00 8.61e+03  -6.0 1.53e+00  -1.1 3.87e-02 1.95e-02h  1
 144 -5.8328933e+00 7.27e+00 7.47e+03  -6.0 1.56e+00  -1.5 6.09e-01 2.45e-01h  1
 145 -5.8189747e+00 2.53e+00 2.10e+03  -6.0 1.46e+00  -2.0 3.96e-01 6.51e-01h  1
 146 -5.8201172e+00 1.82e+00 1.56e+03  -6.0 1.55e+00  -2.5 3.41e-01 2.81e-01h  1
 147 -5.8190243e+00 1.54e-03 2.74e+02  -6.0 5.80e-01  -2.1 7.51e-01 1.00e+00h  1
 148 -5.8254399e+00 2.17e-03 1.52e+02  -6.0 1.44e+00  -2.5 2.22e-01 3.40e-01h  1
 149 -5.8259585e+00 2.04e-03 1.42e+02  -6.0 9.98e-01  -3.0 1.93e-04 5.89e-02f  1
iter    objective    inf_pr   inf_du lg(mu)  ||d||  lg(rg) alpha_du alpha_pr  ls
 150 -5.8260940e+00 1.93e-03 1.27e+02  -6.0 1.66e-01  -1.7 3.38e-01 1.13e-01f  1
 151 -5.8260754e+00 1.86e-03 1.22e+02  -6.0 6.56e-02  -2.2 1.47e-04 3.52e-02h  1
 152 -5.8260490e+00 1.86e-03 1.71e+02  -6.0 1.10e+01  -2.6 3.86e-01 4.08e-03h  1
 153 -5.8262183e+00 1.88e-03 4.34e+02  -6.0 9.63e-02  -3.1 3.09e-02 1.00e+00h  1
 154 -5.8320046e+00 1.81e-01 4.33e+02  -6.0 3.30e+04    -  6.33e-04 2.01e-03f  1
 155 -5.8312191e+00 3.78e-03 1.04e+06  -6.0 9.46e+00  -3.6 7.75e-01 1.00e+00h  1
 156 -5.8312315e+00 3.74e-03 4.51e+06  -6.0 1.73e+00  -4.1 1.00e+00 9.61e-03h  1
 157 -5.8316675e+00 1.53e-04 5.63e+02  -6.0 4.84e-01  -3.6 9.96e-01 1.00e+00f  1
 158 -5.8320077e+00 2.04e-03 3.73e-01  -6.0 9.31e-01  -4.1 1.00e+00 1.00e+00h  1
 159 -5.8326162e+00 7.91e-03 1.37e+00  -6.0 2.51e+00  -4.6 1.00e+00 1.00e+00h  1
iter    objective    inf_pr   inf_du lg(mu)  ||d||  lg(rg) alpha_du alpha_pr  ls
 160 -5.8328686e+00 6.55e-03 2.12e+00  -6.0 6.74e+00  -5.1 1.00e+00 2.84e-01h  1
 161 -5.8350786e+00 1.58e-02 2.20e+01  -6.0 1.97e+01  -5.6 1.00e+00 1.00e+00f  1
 162 -5.8406604e+00 9.54e-02 6.60e+01  -6.0 4.85e+01  -6.0 1.77e-01 1.00e+00h  1
 163 -5.8465727e+00 2.20e-01 3.15e+01  -6.0 6.05e+01  -6.5 1.00e+00 1.00e+00h  1
 164 -5.8498330e+00 5.51e-01 1.86e+01  -6.0 9.14e+01  -7.0 1.00e+00 7.88e-01h  1
 165 -5.8507738e+00 1.40e+00 3.42e+00  -6.0 1.41e+02  -7.5 8.96e-01 1.00e+00h  1
 166 -5.8559357e+00 3.46e-01 7.16e+00  -6.0 2.20e+02  -7.9 6.87e-01 1.00e+00h  1
 167 -5.8584698e+00 9.15e-01 2.64e+01  -6.0 3.44e+02  -8.4 4.46e-01 1.00e+00h  1
 168 -5.8619721e+00 5.66e-01 3.13e+01  -6.0 1.44e+02  -7.1 1.13e-01 3.86e-01h  1
 169 -5.8617411e+00 5.67e-01 2.75e+01  -6.0 1.44e+03  -7.6 2.23e-02 1.84e-02h  3
iter    objective    inf_pr   inf_du lg(mu)  ||d||  lg(rg) alpha_du alpha_pr  ls
 170 -5.8641142e+00 4.45e-01 1.58e+01  -6.0 1.59e+02  -7.1 3.39e-01 2.43e-01h  1
 171 -5.8692147e+00 3.06e-01 7.76e+00  -6.0 1.00e+02  -6.7 9.16e-02 1.00e+00h  1
 172 -5.8708459e+00 2.66e-01 1.42e+01  -6.0 2.49e+02  -7.2 4.60e-01 1.76e-01h  1
 173 -5.8742648e+00 1.05e-01 9.67e-01  -6.0 6.44e+01  -6.8 1.00e+00 1.00e+00h  1
 174 -5.8839050e+00 7.91e-01 7.87e+00  -6.0 3.47e+02  -7.2 5.37e-01 6.21e-01h  1
 175 -5.9608040e+00 3.89e+01 3.82e+02  -6.0 4.03e+03  -7.7 8.61e-02 4.25e-01h  1
 176 -5.9499225e+00 2.50e+01 2.36e+02  -6.0 4.35e+02  -7.3 2.46e-01 3.66e-01h  1
 177 -5.9510770e+00 2.45e+01 3.16e+03  -6.0 5.01e+03    -  1.76e-01 2.23e-02h  1
 178 -5.9576861e+00 2.17e+01 9.85e+03  -6.0 3.94e+03    -  3.88e-01 1.21e-01h  1
 179 -5.9585546e+00 2.07e+01 2.58e+04  -6.0 5.11e+02  -7.8 9.87e-01 4.57e-02h  1
iter    objective    inf_pr   inf_du lg(mu)  ||d||  lg(rg) alpha_du alpha_pr  ls
 180 -5.9682948e+00 1.56e+01 2.08e+04  -6.0 2.60e+03    -  4.20e-01 2.55e-01h  1
 181 -5.9794447e+00 9.42e+00 4.44e+03  -6.0 1.30e+03    -  1.15e-01 4.00e-01h  1
 182 -5.9934249e+00 3.32e+00 9.79e+03  -6.0 3.46e+02  -8.2 4.94e-01 6.49e-01h  1
 183 -5.9942100e+00 2.10e+01 1.07e+04  -6.0 4.65e+04    -  1.58e-02 2.20e-02h  1
 184 -5.9942100e+00 2.10e+01 9.30e+03  -6.0 2.21e+05    -  7.61e-03 1.39e-06h  2
 185 -5.9995090e+00 2.60e+01 3.09e+04  -6.0 2.89e+03    -  1.49e-01 2.78e-01h  1
 186 -6.0104328e+00 1.07e+02 1.50e+05  -6.0 3.91e+03    -  1.41e-01 6.22e-01h  1
 187 -6.0108861e+00 9.66e+01 2.60e+05  -6.0 1.27e+03  -7.8 1.84e-02 9.60e-02h  1
 188 -6.0131172e+00 9.33e+01 2.92e+05  -6.0 6.33e+03  -8.3 2.63e-04 4.83e-02h  1
 189 -6.0194825e+00 6.89e+01 2.10e+05  -6.0 4.05e+02  -7.9 4.48e-01 2.62e-01h  1
iter    objective    inf_pr   inf_du lg(mu)  ||d||  lg(rg) alpha_du alpha_pr  ls
 190 -6.0197731e+00 6.89e+01 2.10e+05  -6.0 5.95e+05  -8.3 1.57e-04 5.37e-04h  1
 191 -6.0245004e+00 5.24e+01 1.63e+05  -6.0 7.91e+02  -8.8 1.03e-01 2.45e-01h  1
 192 -6.0277709e+00 4.66e+01 5.37e+04  -6.0 2.15e+03  -7.5 2.03e-01 1.37e-01h  1
 193 -6.0296790e+00 4.36e+01 4.25e+05  -6.0 1.73e+03    -  2.41e-01 6.42e-02h  1
 194 -6.0347578e+00 3.70e+01 8.32e+05  -6.0 1.32e+03    -  2.91e-01 1.51e-01h  1
 195 -6.0350831e+00 3.65e+01 8.23e+04  -6.0 8.37e+02    -  3.71e-02 1.45e-02h  1
 196r-6.0350831e+00 3.65e+01 1.00e+03   1.5 0.00e+00    -  0.00e+00 1.86e-07R  2
 197r-6.2868973e+00 3.65e+01 1.00e+03   1.5 4.33e+05    -  2.03e-07 7.42e-08f  1
 198 -6.2841295e+00 3.60e+01 1.08e+04  -6.0 1.62e+02    -  1.08e-06 1.16e-02h  1
 199 -6.2814449e+00 3.56e+01 3.75e+04  -6.0 1.59e+02    -  3.40e-03 1.09e-02h  1
iter    objective    inf_pr   inf_du lg(mu)  ||d||  lg(rg) alpha_du alpha_pr  ls
 200 -6.2739958e+00 3.49e+01 3.75e+04  -6.0 1.57e+02    -  2.73e-02 2.02e-02h  1
 201 -6.2519891e+00 3.14e+01 3.02e+04  -6.0 1.52e+02    -  7.88e-02 1.02e-01h  1
 202 -6.1605529e+00 1.84e+01 1.27e+04  -6.0 1.30e+02    -  1.33e-01 4.15e-01h  1
 203 -6.1353950e+00 1.47e+01 1.02e+04  -6.0 6.04e+01    -  6.45e-01 1.99e-01h  1
 204 -6.0540263e+00 3.17e+00 2.19e+03  -6.0 4.20e+01    -  7.89e-01 7.85e-01h  1
 205 -6.0332116e+00 1.01e-03 7.94e+01  -6.0 2.82e+00    -  8.78e-01 1.00e+00h  1
 206 -6.0339344e+00 2.83e-03 4.22e+02  -6.0 7.75e+00    -  8.04e-01 4.13e-01h  1
 207 -6.0349715e+00 1.76e-02 7.89e+01  -6.0 4.94e+01    -  3.44e-01 1.99e-01f  1
 208 -6.0356447e+00 1.04e-02 3.18e+03  -6.0 3.26e+01    -  5.70e-01 4.22e-01f  1
 209 -6.0371736e+00 3.50e-02 3.68e+03  -6.0 1.12e+02    -  5.29e-01 4.18e-01h  1
iter    objective    inf_pr   inf_du lg(mu)  ||d||  lg(rg) alpha_du alpha_pr  ls
 210 -6.0395542e+00 3.54e-01 1.84e+03  -6.0 2.44e+02    -  8.07e-01 6.14e-01h  1
 211 -6.0421227e+00 1.29e+00 2.81e+06  -6.0 2.74e+02  -8.0 2.63e-03 1.00e+00h  1
 212 -6.0440315e+00 7.52e-02 6.61e+02  -6.0 5.36e+02    -  8.77e-01 1.00e+00H  1
 213 -6.0452292e+00 2.94e-01 2.69e+00  -6.0 4.96e+02    -  8.54e-01 1.00e+00H  1
 214 -6.0454315e+00 1.29e-01 1.37e+00  -6.0 5.95e+02    -  8.45e-01 1.00e+00H  1
 215 -6.0456116e+00 1.62e-01 2.70e+00  -6.0 3.72e+02    -  7.45e-01 1.00e+00H  1
 216 -6.0457135e+00 1.29e+00 8.58e-01  -6.0 2.91e+02    -  9.97e-01 1.00e+00h  1
 217 -6.0455640e+00 7.27e-04 6.47e-02  -6.0 4.90e+00    -  1.00e+00 1.00e+00h  1
 218 -6.0455241e+00 6.90e-04 6.79e-01  -6.0 7.50e+00    -  1.00e+00 2.50e-01h  3
 219 -6.0453793e+00 5.48e-04 2.43e-02  -6.0 5.95e+00    -  1.00e+00 1.00e+00H  1
iter    objective    inf_pr   inf_du lg(mu)  ||d||  lg(rg) alpha_du alpha_pr  ls
 220 -6.0453783e+00 1.17e-04 3.29e-03  -6.0 1.69e+00    -  1.00e+00 1.00e+00h  1
 221 -6.0453769e+00 1.84e-07 7.19e-06  -6.0 6.70e-02    -  1.00e+00 1.00e+00h  1
 222 -6.0454881e+00 2.97e+00 1.07e+01  -7.5 5.68e+02    -  8.11e-01 7.74e-01h  1
 223 -6.0454820e+00 6.51e-01 9.91e+00  -7.5 1.44e+02    -  1.00e+00 8.66e-01h  1
 224 -6.0454785e+00 5.30e-03 9.12e-03  -7.5 1.77e+01    -  1.00e+00 1.00e+00h  1
 225 -6.0454784e+00 2.04e-07 9.85e-08  -7.5 1.19e-01    -  1.00e+00 1.00e+00h  1
 226 -6.0454800e+00 3.89e-03 7.20e-01  -9.0 1.85e+01    -  9.27e-01 8.48e-01h  1
 227 -6.0454802e+00 1.15e-04 2.87e-01  -9.0 2.70e+00    -  9.29e-01 1.00e+00h  1
 228 -6.0454802e+00 6.84e-10 4.02e-09  -9.0 6.68e-03    -  1.00e+00 1.00e+00h  1

Number of Iterations....: 228

                                   (scaled)                 (unscaled)
Objective...............:  -4.7230314166616312e+00   -6.0454802133268881e+00
Dual infeasibility......:   4.0210868242134687e-09    5.1469911349932399e-09
Constraint violation....:   5.4657813462776506e-10    6.8394001573324203e-10
Complementarity.........:   1.3098753286727080e-09    1.6766404207010661e-09
Overall NLP error.......:   4.0210868242134687e-09    5.1469911349932399e-09


Number of objective function evaluations             = 413
Number of objective gradient evaluations             = 223
Number of equality constraint evaluations            = 413
Number of inequality constraint evaluations          = 413
Number of equality constraint Jacobian evaluations   = 232
Number of inequality constraint Jacobian evaluations = 232
Number of Lagrangian Hessian evaluations             = 228
Total CPU secs in IPOPT (w/o function evaluations)   =    642.167
Total CPU secs in NLP function evaluations           =      9.374

EXIT: Optimal Solution Found.
